3183426
222,158,146,45,86,201,200,164,76,84,82,93,104,131,31,74,157,20,25,172,113,47,197,46,142,129,228,170,21,12,38,33,153,103,212,161,108,68,19,14,193,206,218,227,41,77,190,141,66,3,59,32,189,65,168,73,178,185,9,220,226,69,229,52,115,6,51,209,42,36,148,48,138,124,95,23,160,149,98,78,87,196,205,117,214,60,211,109,217,4,11,123,106,219,24,180,187,171,186,150,90,88,111,80,85,79,58,166,151,207,147,7,13,203,204,223,125,107,40,72,182,17,5,114,221,70,132,173,188,139,120,43,159,71,39,183,208,49,140,179,198,199,167,134,174,136,110,1,194,224,213,163,28,169,81,96,16,53,92,100,216,202,54,105,99,18,121,230,152,67,15,165,225,64,126,26,176,44,57,119,137,135,8,62,144,181,145,75,22,50,192,10,37,101,94,133,155,112,162,127,83,35,34,89,91,191,30,61,154,156,130,184,63,97,122,143,195,210,55,116,215,27,102,118,29,177,2,128,56,175